p cnf 1148 2649
1 0
-2 0
-3 0
-4 0
-5 0
-6 0
-7 0
-8 0
-9 0
-10 0
-11 0
-12 0
-13 0
-14 0
-15 0
-16 0
-17 0
-18 0
-19 0
-20 0
-21 0
-22 0
-23 0
-24 0
-25 0
-26 0
1 -27 0
-1 27 0
28 29 0
30 29 0
-28 -30 -29 0
-2 29 -31 0
2 -29 -31 0
31 -29 -2 0
2 29 31 0
-31 0
32 33 0
34 33 0
-32 -34 -33 0
-28 33 -35 0
28 -33 -35 0
35 -33 -28 0
28 33 35 0
-35 0
36 37 0
38 37 0
-36 -38 -37 0
-32 37 -39 0
32 -37 -39 0
39 -37 -32 0
32 37 39 0
-39 0
40 41 0
42 41 0
-40 -42 -41 0
-36 41 -43 0
36 -41 -43 0
43 -41 -36 0
36 41 43 0
-43 0
44 45 0
46 45 0
-44 -46 -45 0
-40 45 -47 0
40 -45 -47 0
47 -45 -40 0
40 45 47 0
-47 0
48 49 0
50 49 0
-48 -50 -49 0
-44 49 -51 0
44 -49 -51 0
51 -49 -44 0
44 49 51 0
-51 0
52 53 0
54 53 0
-52 -54 -53 0
-48 53 -55 0
48 -53 -55 0
55 -53 -48 0
48 53 55 0
-55 0
56 57 0
58 57 0
-56 -58 -57 0
-52 57 -59 0
52 -57 -59 0
59 -57 -52 0
52 57 59 0
-59 0
60 61 0
62 61 0
-60 -62 -61 0
-56 61 -63 0
56 -61 -63 0
63 -61 -56 0
56 61 63 0
-63 0
64 65 0
66 65 0
-64 -66 -65 0
-60 65 -67 0
60 -65 -67 0
67 -65 -60 0
60 65 67 0
-67 0
68 69 0
70 69 0
-68 -70 -69 0
-64 69 -71 0
64 -69 -71 0
71 -69 -64 0
64 69 71 0
-71 0
50 72 0
62 72 0
66 72 0
73 72 0
54 72 0
58 72 0
70 72 0
-74 0
-68 72 -75 0
68 -72 -75 0
75 -72 -68 0
68 72 75 0
-75 0
76 77 0
78 77 0
-76 -78 -77 0
-3 77 -79 0
3 -77 -79 0
79 -77 -3 0
3 77 79 0
-79 0
80 81 0
82 81 0
-80 -82 -81 0
-76 81 -83 0
76 -81 -83 0
83 -81 -76 0
76 81 83 0
-83 0
84 85 0
86 85 0
-84 -86 -85 0
-80 85 -87 0
80 -85 -87 0
87 -85 -80 0
80 85 87 0
-87 0
88 89 0
90 89 0
-88 -90 -89 0
-84 89 -91 0
84 -89 -91 0
91 -89 -84 0
84 89 91 0
-91 0
92 93 0
94 93 0
-92 -94 -93 0
-88 93 -95 0
88 -93 -95 0
95 -93 -88 0
88 93 95 0
-95 0
96 97 0
98 97 0
-96 -98 -97 0
-92 97 -99 0
92 -97 -99 0
99 -97 -92 0
92 97 99 0
-99 0
100 101 0
102 101 0
-100 -102 -101 0
-96 101 -103 0
96 -101 -103 0
103 -101 -96 0
96 101 103 0
-103 0
104 105 0
106 105 0
-104 -106 -105 0
-100 105 -107 0
100 -105 -107 0
107 -105 -100 0
100 105 107 0
-107 0
108 109 0
110 109 0
-108 -110 -109 0
-104 109 -111 0
104 -109 -111 0
111 -109 -104 0
104 109 111 0
-111 0
112 113 0
114 113 0
-112 -114 -113 0
-108 113 -115 0
108 -113 -115 0
115 -113 -108 0
108 113 115 0
-115 0
116 117 0
118 117 0
-116 -118 -117 0
-112 117 -119 0
112 -117 -119 0
119 -117 -112 0
112 117 119 0
-119 0
106 120 0
110 120 0
114 120 0
121 120 0
102 120 0
118 120 0
-122 0
-116 120 -123 0
116 -120 -123 0
123 -120 -116 0
116 120 123 0
-123 0
124 125 0
126 125 0
-124 -126 -125 0
-4 125 -127 0
4 -125 -127 0
127 -125 -4 0
4 125 127 0
-127 0
128 129 0
130 129 0
-128 -130 -129 0
-124 129 -131 0
124 -129 -131 0
131 -129 -124 0
124 129 131 0
-131 0
132 133 0
134 133 0
-132 -134 -133 0
-128 133 -135 0
128 -133 -135 0
135 -133 -128 0
128 133 135 0
-135 0
136 137 0
138 137 0
-136 -138 -137 0
-132 137 -139 0
132 -137 -139 0
139 -137 -132 0
132 137 139 0
-139 0
140 141 0
142 141 0
-140 -142 -141 0
-136 141 -143 0
136 -141 -143 0
143 -141 -136 0
136 141 143 0
-143 0
144 145 0
146 145 0
-144 -146 -145 0
-140 145 -147 0
140 -145 -147 0
147 -145 -140 0
140 145 147 0
-147 0
148 149 0
150 149 0
-148 -150 -149 0
-144 149 -151 0
144 -149 -151 0
151 -149 -144 0
144 149 151 0
-151 0
152 153 0
154 153 0
-152 -154 -153 0
-148 153 -155 0
148 -153 -155 0
155 -153 -148 0
148 153 155 0
-155 0
156 157 0
158 157 0
-156 -158 -157 0
-152 157 -159 0
152 -157 -159 0
159 -157 -152 0
152 157 159 0
-159 0
160 161 0
162 161 0
-160 -162 -161 0
-156 161 -163 0
156 -161 -163 0
163 -161 -156 0
156 161 163 0
-163 0
164 165 0
166 165 0
-164 -166 -165 0
-160 165 -167 0
160 -165 -167 0
167 -165 -160 0
160 165 167 0
-167 0
146 168 0
150 168 0
154 168 0
162 168 0
169 168 0
142 168 0
158 168 0
166 168 0
-170 0
-164 168 -171 0
164 -168 -171 0
171 -168 -164 0
164 168 171 0
-171 0
172 173 0
174 173 0
-172 -174 -173 0
-5 173 -175 0
5 -173 -175 0
175 -173 -5 0
5 173 175 0
-175 0
176 177 0
178 177 0
-176 -178 -177 0
-172 177 -179 0
172 -177 -179 0
179 -177 -172 0
172 177 179 0
-179 0
180 181 0
182 181 0
-180 -182 -181 0
-176 181 -183 0
176 -181 -183 0
183 -181 -176 0
176 181 183 0
-183 0
184 185 0
186 185 0
-184 -186 -185 0
-180 185 -187 0
180 -185 -187 0
187 -185 -180 0
180 185 187 0
-187 0
188 189 0
190 189 0
-188 -190 -189 0
-184 189 -191 0
184 -189 -191 0
191 -189 -184 0
184 189 191 0
-191 0
192 193 0
194 193 0
-192 -194 -193 0
-188 193 -195 0
188 -193 -195 0
195 -193 -188 0
188 193 195 0
-195 0
196 197 0
198 197 0
-196 -198 -197 0
-192 197 -199 0
192 -197 -199 0
199 -197 -192 0
192 197 199 0
-199 0
200 201 0
202 201 0
-200 -202 -201 0
-196 201 -203 0
196 -201 -203 0
203 -201 -196 0
196 201 203 0
-203 0
204 205 0
206 205 0
-204 -206 -205 0
-200 205 -207 0
200 -205 -207 0
207 -205 -200 0
200 205 207 0
-207 0
208 209 0
210 209 0
-208 -210 -209 0
-204 209 -211 0
204 -209 -211 0
211 -209 -204 0
204 209 211 0
-211 0
212 213 0
214 213 0
-212 -214 -213 0
-208 213 -215 0
208 -213 -215 0
215 -213 -208 0
208 213 215 0
-215 0
216 217 0
218 217 0
-216 -218 -217 0
-212 217 -219 0
212 -217 -219 0
219 -217 -212 0
212 217 219 0
-219 0
206 220 0
214 220 0
194 220 0
198 220 0
202 220 0
210 220 0
218 220 0
221 220 0
-222 0
-216 220 -223 0
216 -220 -223 0
223 -220 -216 0
216 220 223 0
-223 0
224 225 0
226 225 0
-224 -226 -225 0
-6 225 -227 0
6 -225 -227 0
227 -225 -6 0
6 225 227 0
-227 0
228 229 0
230 229 0
-228 -230 -229 0
-224 229 -231 0
224 -229 -231 0
231 -229 -224 0
224 229 231 0
-231 0
232 233 0
234 233 0
-232 -234 -233 0
-228 233 -235 0
228 -233 -235 0
235 -233 -228 0
228 233 235 0
-235 0
236 237 0
238 237 0
-236 -238 -237 0
-232 237 -239 0
232 -237 -239 0
239 -237 -232 0
232 237 239 0
-239 0
240 241 0
242 241 0
-240 -242 -241 0
-236 241 -243 0
236 -241 -243 0
243 -241 -236 0
236 241 243 0
-243 0
148 244 0
245 244 0
-148 -245 -244 0
-240 244 -246 0
240 -244 -246 0
246 -244 -240 0
240 244 246 0
-246 0
247 248 0
249 248 0
-247 -249 -248 0
-7 248 -250 0
7 -248 -250 0
250 -248 -7 0
7 248 250 0
-250 0
251 252 0
253 252 0
-251 -253 -252 0
-247 252 -254 0
247 -252 -254 0
254 -252 -247 0
247 252 254 0
-254 0
255 256 0
257 256 0
-255 -257 -256 0
-251 256 -258 0
251 -256 -258 0
258 -256 -251 0
251 256 258 0
-258 0
259 260 0
261 260 0
-259 -261 -260 0
-255 260 -262 0
255 -260 -262 0
262 -260 -255 0
255 260 262 0
-262 0
263 264 0
265 264 0
-263 -265 -264 0
-259 264 -266 0
259 -264 -266 0
266 -264 -259 0
259 264 266 0
-266 0
267 268 0
269 268 0
-267 -269 -268 0
-263 268 -270 0
263 -268 -270 0
270 -268 -263 0
263 268 270 0
-270 0
271 272 0
273 272 0
-271 -273 -272 0
-267 272 -274 0
267 -272 -274 0
274 -272 -267 0
267 272 274 0
-274 0
275 276 0
277 276 0
-275 -277 -276 0
-271 276 -278 0
271 -276 -278 0
278 -276 -271 0
271 276 278 0
-278 0
279 280 0
281 280 0
-279 -281 -280 0
-275 280 -282 0
275 -280 -282 0
282 -280 -275 0
275 280 282 0
-282 0
283 284 0
285 284 0
-283 -285 -284 0
-279 284 -286 0
279 -284 -286 0
286 -284 -279 0
279 284 286 0
-286 0
287 288 0
289 288 0
-287 -289 -288 0
-283 288 -290 0
283 -288 -290 0
290 -288 -283 0
283 288 290 0
-290 0
291 292 0
293 292 0
-291 -293 -292 0
-287 292 -294 0
287 -292 -294 0
294 -292 -287 0
287 292 294 0
-294 0
295 296 0
297 296 0
-295 -297 -296 0
-291 296 -298 0
291 -296 -298 0
298 -296 -291 0
291 296 298 0
-298 0
273 299 0
277 299 0
285 299 0
289 299 0
297 299 0
281 299 0
293 299 0
300 299 0
-301 0
-295 299 -302 0
295 -299 -302 0
302 -299 -295 0
295 299 302 0
-302 0
303 304 0
305 304 0
-303 -305 -304 0
-8 304 -306 0
8 -304 -306 0
306 -304 -8 0
8 304 306 0
-306 0
307 308 0
309 308 0
-307 -309 -308 0
-303 308 -310 0
303 -308 -310 0
310 -308 -303 0
303 308 310 0
-310 0
311 312 0
313 312 0
-311 -313 -312 0
-307 312 -314 0
307 -312 -314 0
314 -312 -307 0
307 312 314 0
-314 0
315 316 0
317 316 0
-315 -317 -316 0
-311 316 -318 0
311 -316 -318 0
318 -316 -311 0
311 316 318 0
-318 0
319 320 0
321 320 0
-319 -321 -320 0
-315 320 -322 0
315 -320 -322 0
322 -320 -315 0
315 320 322 0
-322 0
323 324 0
325 324 0
-323 -325 -324 0
-319 324 -326 0
319 -324 -326 0
326 -324 -319 0
319 324 326 0
-326 0
327 328 0
329 328 0
-327 -329 -328 0
-323 328 -330 0
323 -328 -330 0
330 -328 -323 0
323 328 330 0
-330 0
331 332 0
333 332 0
-331 -333 -332 0
-327 332 -334 0
327 -332 -334 0
334 -332 -327 0
327 332 334 0
-334 0
335 336 0
337 336 0
-335 -337 -336 0
-331 336 -338 0
331 -336 -338 0
338 -336 -331 0
331 336 338 0
-338 0
339 340 0
341 340 0
-339 -341 -340 0
-335 340 -342 0
335 -340 -342 0
342 -340 -335 0
335 340 342 0
-342 0
343 344 0
345 344 0
-343 -345 -344 0
-339 344 -346 0
339 -344 -346 0
346 -344 -339 0
339 344 346 0
-346 0
347 348 0
349 348 0
-347 -349 -348 0
-343 348 -350 0
343 -348 -350 0
350 -348 -343 0
343 348 350 0
-350 0
333 351 0
352 351 0
337 351 0
341 351 0
345 351 0
349 351 0
-353 0
-347 351 -354 0
347 -351 -354 0
354 -351 -347 0
347 351 354 0
-354 0
355 356 0
357 356 0
-355 -357 -356 0
-9 356 -358 0
9 -356 -358 0
358 -356 -9 0
9 356 358 0
-358 0
359 360 0
361 360 0
-359 -361 -360 0
-355 360 -362 0
355 -360 -362 0
362 -360 -355 0
355 360 362 0
-362 0
363 364 0
365 364 0
-363 -365 -364 0
-359 364 -366 0
359 -364 -366 0
366 -364 -359 0
359 364 366 0
-366 0
367 368 0
369 368 0
-367 -369 -368 0
-363 368 -370 0
363 -368 -370 0
370 -368 -363 0
363 368 370 0
-370 0
371 372 0
373 372 0
-371 -373 -372 0
-367 372 -374 0
367 -372 -374 0
374 -372 -367 0
367 372 374 0
-374 0
375 376 0
377 376 0
-375 -377 -376 0
-371 376 -378 0
371 -376 -378 0
378 -376 -371 0
371 376 378 0
-378 0
379 380 0
381 380 0
-379 -381 -380 0
-375 380 -382 0
375 -380 -382 0
382 -380 -375 0
375 380 382 0
-382 0
383 384 0
385 384 0
-383 -385 -384 0
-379 384 -386 0
379 -384 -386 0
386 -384 -379 0
379 384 386 0
-386 0
387 388 0
389 388 0
-387 -389 -388 0
-383 388 -390 0
383 -388 -390 0
390 -388 -383 0
383 388 390 0
-390 0
391 392 0
393 392 0
-391 -393 -392 0
-387 392 -394 0
387 -392 -394 0
394 -392 -387 0
387 392 394 0
-394 0
395 396 0
397 396 0
-395 -397 -396 0
-391 396 -398 0
391 -396 -398 0
398 -396 -391 0
391 396 398 0
-398 0
399 400 0
401 400 0
-399 -401 -400 0
-395 400 -402 0
395 -400 -402 0
402 -400 -395 0
395 400 402 0
-402 0
403 404 0
405 404 0
-403 -405 -404 0
-399 404 -406 0
399 -404 -406 0
406 -404 -399 0
399 404 406 0
-406 0
407 408 0
409 408 0
-407 -409 -408 0
-403 408 -410 0
403 -408 -410 0
410 -408 -403 0
403 408 410 0
-410 0
385 411 0
397 411 0
401 411 0
405 411 0
409 411 0
389 411 0
393 411 0
412 411 0
-413 0
-407 411 -414 0
407 -411 -414 0
414 -411 -407 0
407 411 414 0
-414 0
415 416 0
417 416 0
-415 -417 -416 0
-10 416 -418 0
10 -416 -418 0
418 -416 -10 0
10 416 418 0
-418 0
419 420 0
421 420 0
-419 -421 -420 0
-415 420 -422 0
415 -420 -422 0
422 -420 -415 0
415 420 422 0
-422 0
423 424 0
425 424 0
-423 -425 -424 0
-419 424 -426 0
419 -424 -426 0
426 -424 -419 0
419 424 426 0
-426 0
427 428 0
429 428 0
-427 -429 -428 0
-423 428 -430 0
423 -428 -430 0
430 -428 -423 0
423 428 430 0
-430 0
431 432 0
433 432 0
-431 -433 -432 0
-427 432 -434 0
427 -432 -434 0
434 -432 -427 0
427 432 434 0
-434 0
339 435 0
436 435 0
-339 -436 -435 0
-431 435 -437 0
431 -435 -437 0
437 -435 -431 0
431 435 437 0
-437 0
438 439 0
440 439 0
-438 -440 -439 0
-11 439 -441 0
11 -439 -441 0
441 -439 -11 0
11 439 441 0
-441 0
442 443 0
444 443 0
-442 -444 -443 0
-438 443 -445 0
438 -443 -445 0
445 -443 -438 0
438 443 445 0
-445 0
446 447 0
448 447 0
-446 -448 -447 0
-442 447 -449 0
442 -447 -449 0
449 -447 -442 0
442 447 449 0
-449 0
450 451 0
452 451 0
-450 -452 -451 0
-446 451 -453 0
446 -451 -453 0
453 -451 -446 0
446 451 453 0
-453 0
454 455 0
456 455 0
-454 -456 -455 0
-450 455 -457 0
450 -455 -457 0
457 -455 -450 0
450 455 457 0
-457 0
458 459 0
460 459 0
-458 -460 -459 0
-454 459 -461 0
454 -459 -461 0
461 -459 -454 0
454 459 461 0
-461 0
462 463 0
464 463 0
-462 -464 -463 0
-458 463 -465 0
458 -463 -465 0
465 -463 -458 0
458 463 465 0
-465 0
466 467 0
468 467 0
-466 -468 -467 0
-462 467 -469 0
462 -467 -469 0
469 -467 -462 0
462 467 469 0
-469 0
470 471 0
472 471 0
-470 -472 -471 0
-466 471 -473 0
466 -471 -473 0
473 -471 -466 0
466 471 473 0
-473 0
474 475 0
476 475 0
-474 -476 -475 0
-470 475 -477 0
470 -475 -477 0
477 -475 -470 0
470 475 477 0
-477 0
478 479 0
480 479 0
-478 -480 -479 0
-474 479 -481 0
474 -479 -481 0
481 -479 -474 0
474 479 481 0
-481 0
482 483 0
484 483 0
-482 -484 -483 0
-478 483 -485 0
478 -483 -485 0
485 -483 -478 0
478 483 485 0
-485 0
486 487 0
488 487 0
-486 -488 -487 0
-482 487 -489 0
482 -487 -489 0
489 -487 -482 0
482 487 489 0
-489 0
490 491 0
492 491 0
-490 -492 -491 0
-486 491 -493 0
486 -491 -493 0
493 -491 -486 0
486 491 493 0
-493 0
468 494 0
476 494 0
484 494 0
495 494 0
472 494 0
480 494 0
488 494 0
492 494 0
-496 0
-490 494 -497 0
490 -494 -497 0
497 -494 -490 0
490 494 497 0
-497 0
498 499 0
500 499 0
-498 -500 -499 0
-12 499 -501 0
12 -499 -501 0
501 -499 -12 0
12 499 501 0
-501 0
502 503 0
504 503 0
-502 -504 -503 0
-498 503 -505 0
498 -503 -505 0
505 -503 -498 0
498 503 505 0
-505 0
506 507 0
508 507 0
-506 -508 -507 0
-502 507 -509 0
502 -507 -509 0
509 -507 -502 0
502 507 509 0
-509 0
510 511 0
512 511 0
-510 -512 -511 0
-506 511 -513 0
506 -511 -513 0
513 -511 -506 0
506 511 513 0
-513 0
514 515 0
516 515 0
-514 -516 -515 0
-510 515 -517 0
510 -515 -517 0
517 -515 -510 0
510 515 517 0
-517 0
518 519 0
520 519 0
-518 -520 -519 0
-514 519 -521 0
514 -519 -521 0
521 -519 -514 0
514 519 521 0
-521 0
522 523 0
524 523 0
-522 -524 -523 0
-518 523 -525 0
518 -523 -525 0
525 -523 -518 0
518 523 525 0
-525 0
526 527 0
528 527 0
-526 -528 -527 0
-522 527 -529 0
522 -527 -529 0
529 -527 -522 0
522 527 529 0
-529 0
530 531 0
532 531 0
-530 -532 -531 0
-526 531 -533 0
526 -531 -533 0
533 -531 -526 0
526 531 533 0
-533 0
534 535 0
536 535 0
-534 -536 -535 0
-530 535 -537 0
530 -535 -537 0
537 -535 -530 0
530 535 537 0
-537 0
538 539 0
540 539 0
-538 -540 -539 0
-534 539 -541 0
534 -539 -541 0
541 -539 -534 0
534 539 541 0
-541 0
542 543 0
544 543 0
-542 -544 -543 0
-538 543 -545 0
538 -543 -545 0
545 -543 -538 0
538 543 545 0
-545 0
546 547 0
548 547 0
-546 -548 -547 0
-542 547 -549 0
542 -547 -549 0
549 -547 -542 0
542 547 549 0
-549 0
550 551 0
552 551 0
-550 -552 -551 0
-546 551 -553 0
546 -551 -553 0
553 -551 -546 0
546 551 553 0
-553 0
540 554 0
544 554 0
532 554 0
536 554 0
548 554 0
552 554 0
555 554 0
-556 0
-550 554 -557 0
550 -554 -557 0
557 -554 -550 0
550 554 557 0
-557 0
558 559 0
560 559 0
-558 -560 -559 0
-13 559 -561 0
13 -559 -561 0
561 -559 -13 0
13 559 561 0
-561 0
562 563 0
564 563 0
-562 -564 -563 0
-558 563 -565 0
558 -563 -565 0
565 -563 -558 0
558 563 565 0
-565 0
566 567 0
568 567 0
-566 -568 -567 0
-562 567 -569 0
562 -567 -569 0
569 -567 -562 0
562 567 569 0
-569 0
570 571 0
572 571 0
-570 -572 -571 0
-566 571 -573 0
566 -571 -573 0
573 -571 -566 0
566 571 573 0
-573 0
574 575 0
576 575 0
-574 -576 -575 0
-570 575 -577 0
570 -575 -577 0
577 -575 -570 0
570 575 577 0
-577 0
112 578 0
579 578 0
-112 -579 -578 0
-574 578 -580 0
574 -578 -580 0
580 -578 -574 0
574 578 580 0
-580 0
581 582 0
583 582 0
-581 -583 -582 0
-14 582 -584 0
14 -582 -584 0
584 -582 -14 0
14 582 584 0
-584 0
585 586 0
587 586 0
-585 -587 -586 0
-581 586 -588 0
581 -586 -588 0
588 -586 -581 0
581 586 588 0
-588 0
589 590 0
591 590 0
-589 -591 -590 0
-585 590 -592 0
585 -590 -592 0
592 -590 -585 0
585 590 592 0
-592 0
593 594 0
595 594 0
-593 -595 -594 0
-589 594 -596 0
589 -594 -596 0
596 -594 -589 0
589 594 596 0
-596 0
597 598 0
599 598 0
-597 -599 -598 0
-593 598 -600 0
593 -598 -600 0
600 -598 -593 0
593 598 600 0
-600 0
601 602 0
603 602 0
-601 -603 -602 0
-597 602 -604 0
597 -602 -604 0
604 -602 -597 0
597 602 604 0
-604 0
605 606 0
607 606 0
-605 -607 -606 0
-601 606 -608 0
601 -606 -608 0
608 -606 -601 0
601 606 608 0
-608 0
609 610 0
611 610 0
-609 -611 -610 0
-605 610 -612 0
605 -610 -612 0
612 -610 -605 0
605 610 612 0
-612 0
613 614 0
615 614 0
-613 -615 -614 0
-609 614 -616 0
609 -614 -616 0
616 -614 -609 0
609 614 616 0
-616 0
617 618 0
619 618 0
-617 -619 -618 0
-613 618 -620 0
613 -618 -620 0
620 -618 -613 0
613 618 620 0
-620 0
621 622 0
623 622 0
-621 -623 -622 0
-617 622 -624 0
617 -622 -624 0
624 -622 -617 0
617 622 624 0
-624 0
625 626 0
627 626 0
-625 -627 -626 0
-621 626 -628 0
621 -626 -628 0
628 -626 -621 0
621 626 628 0
-628 0
629 630 0
631 630 0
-629 -631 -630 0
-625 630 -632 0
625 -630 -632 0
632 -630 -625 0
625 630 632 0
-632 0
633 634 0
635 634 0
-633 -635 -634 0
-629 634 -636 0
629 -634 -636 0
636 -634 -629 0
629 634 636 0
-636 0
615 637 0
619 637 0
623 637 0
627 637 0
631 637 0
638 637 0
611 637 0
635 637 0
-639 0
-633 637 -640 0
633 -637 -640 0
640 -637 -633 0
633 637 640 0
-640 0
641 642 0
643 642 0
-641 -643 -642 0
-15 642 -644 0
15 -642 -644 0
644 -642 -15 0
15 642 644 0
-644 0
645 646 0
647 646 0
-645 -647 -646 0
-641 646 -648 0
641 -646 -648 0
648 -646 -641 0
641 646 648 0
-648 0
649 650 0
651 650 0
-649 -651 -650 0
-645 650 -652 0
645 -650 -652 0
652 -650 -645 0
645 650 652 0
-652 0
653 654 0
655 654 0
-653 -655 -654 0
-649 654 -656 0
649 -654 -656 0
656 -654 -649 0
649 654 656 0
-656 0
470 657 0
658 657 0
-470 -658 -657 0
-653 657 -659 0
653 -657 -659 0
659 -657 -653 0
653 657 659 0
-659 0
660 661 0
662 661 0
-660 -662 -661 0
-16 661 -663 0
16 -661 -663 0
663 -661 -16 0
16 661 663 0
-663 0
664 665 0
666 665 0
-664 -666 -665 0
-660 665 -667 0
660 -665 -667 0
667 -665 -660 0
660 665 667 0
-667 0
668 669 0
670 669 0
-668 -670 -669 0
-664 669 -671 0
664 -669 -671 0
671 -669 -664 0
664 669 671 0
-671 0
672 673 0
674 673 0
-672 -674 -673 0
-668 673 -675 0
668 -673 -675 0
675 -673 -668 0
668 673 675 0
-675 0
676 677 0
678 677 0
-676 -678 -677 0
-672 677 -679 0
672 -677 -679 0
679 -677 -672 0
672 677 679 0
-679 0
680 681 0
682 681 0
-680 -682 -681 0
-676 681 -683 0
676 -681 -683 0
683 -681 -676 0
676 681 683 0
-683 0
684 685 0
686 685 0
-684 -686 -685 0
-680 685 -687 0
680 -685 -687 0
687 -685 -680 0
680 685 687 0
-687 0
688 689 0
690 689 0
-688 -690 -689 0
-684 689 -691 0
684 -689 -691 0
691 -689 -684 0
684 689 691 0
-691 0
692 693 0
694 693 0
-692 -694 -693 0
-688 693 -695 0
688 -693 -695 0
695 -693 -688 0
688 693 695 0
-695 0
696 697 0
698 697 0
-696 -698 -697 0
-692 697 -699 0
692 -697 -699 0
699 -697 -692 0
692 697 699 0
-699 0
700 701 0
702 701 0
-700 -702 -701 0
-696 701 -703 0
696 -701 -703 0
703 -701 -696 0
696 701 703 0
-703 0
704 705 0
706 705 0
-704 -706 -705 0
-700 705 -707 0
700 -705 -707 0
707 -705 -700 0
700 705 707 0
-707 0
698 708 0
706 708 0
709 708 0
690 708 0
694 708 0
702 708 0
-710 0
-704 708 -711 0
704 -708 -711 0
711 -708 -704 0
704 708 711 0
-711 0
712 713 0
714 713 0
-712 -714 -713 0
-17 713 -715 0
17 -713 -715 0
715 -713 -17 0
17 713 715 0
-715 0
716 717 0
718 717 0
-716 -718 -717 0
-712 717 -719 0
712 -717 -719 0
719 -717 -712 0
712 717 719 0
-719 0
720 721 0
722 721 0
-720 -722 -721 0
-716 721 -723 0
716 -721 -723 0
723 -721 -716 0
716 721 723 0
-723 0
724 725 0
726 725 0
-724 -726 -725 0
-720 725 -727 0
720 -725 -727 0
727 -725 -720 0
720 725 727 0
-727 0
728 729 0
730 729 0
-728 -730 -729 0
-724 729 -731 0
724 -729 -731 0
731 -729 -724 0
724 729 731 0
-731 0
732 733 0
734 733 0
-732 -734 -733 0
-728 733 -735 0
728 -733 -735 0
735 -733 -728 0
728 733 735 0
-735 0
736 737 0
738 737 0
-736 -738 -737 0
-732 737 -739 0
732 -737 -739 0
739 -737 -732 0
732 737 739 0
-739 0
271 740 0
741 740 0
-271 -741 -740 0
-736 740 -742 0
736 -740 -742 0
742 -740 -736 0
736 740 742 0
-742 0
743 744 0
745 744 0
-743 -745 -744 0
-18 744 -746 0
18 -744 -746 0
746 -744 -18 0
18 744 746 0
-746 0
747 748 0
749 748 0
-747 -749 -748 0
-743 748 -750 0
743 -748 -750 0
750 -748 -743 0
743 748 750 0
-750 0
751 752 0
753 752 0
-751 -753 -752 0
-747 752 -754 0
747 -752 -754 0
754 -752 -747 0
747 752 754 0
-754 0
755 756 0
757 756 0
-755 -757 -756 0
-751 756 -758 0
751 -756 -758 0
758 -756 -751 0
751 756 758 0
-758 0
759 760 0
761 760 0
-759 -761 -760 0
-755 760 -762 0
755 -760 -762 0
762 -760 -755 0
755 760 762 0
-762 0
763 764 0
765 764 0
-763 -765 -764 0
-759 764 -766 0
759 -764 -766 0
766 -764 -759 0
759 764 766 0
-766 0
767 768 0
769 768 0
-767 -769 -768 0
-763 768 -770 0
763 -768 -770 0
770 -768 -763 0
763 768 770 0
-770 0
771 772 0
773 772 0
-771 -773 -772 0
-767 772 -774 0
767 -772 -774 0
774 -772 -767 0
767 772 774 0
-774 0
775 776 0
777 776 0
-775 -777 -776 0
-771 776 -778 0
771 -776 -778 0
778 -776 -771 0
771 776 778 0
-778 0
779 780 0
781 780 0
-779 -781 -780 0
-775 780 -782 0
775 -780 -782 0
782 -780 -775 0
775 780 782 0
-782 0
783 784 0
785 784 0
-783 -785 -784 0
-779 784 -786 0
779 -784 -786 0
786 -784 -779 0
779 784 786 0
-786 0
769 787 0
773 787 0
781 787 0
785 787 0
788 787 0
765 787 0
777 787 0
-789 0
-783 787 -790 0
783 -787 -790 0
790 -787 -783 0
783 787 790 0
-790 0
791 792 0
793 792 0
-791 -793 -792 0
-19 792 -794 0
19 -792 -794 0
794 -792 -19 0
19 792 794 0
-794 0
795 796 0
797 796 0
-795 -797 -796 0
-791 796 -798 0
791 -796 -798 0
798 -796 -791 0
791 796 798 0
-798 0
799 800 0
801 800 0
-799 -801 -800 0
-795 800 -802 0
795 -800 -802 0
802 -800 -795 0
795 800 802 0
-802 0
803 804 0
805 804 0
-803 -805 -804 0
-799 804 -806 0
799 -804 -806 0
806 -804 -799 0
799 804 806 0
-806 0
807 808 0
809 808 0
-807 -809 -808 0
-803 808 -810 0
803 -808 -810 0
810 -808 -803 0
803 808 810 0
-810 0
811 812 0
813 812 0
-811 -813 -812 0
-807 812 -814 0
807 -812 -814 0
814 -812 -807 0
807 812 814 0
-814 0
688 815 0
816 815 0
-688 -816 -815 0
-811 815 -817 0
811 -815 -817 0
817 -815 -811 0
811 815 817 0
-817 0
818 819 0
820 819 0
-818 -820 -819 0
-20 819 -821 0
20 -819 -821 0
821 -819 -20 0
20 819 821 0
-821 0
822 823 0
824 823 0
-822 -824 -823 0
-818 823 -825 0
818 -823 -825 0
825 -823 -818 0
818 823 825 0
-825 0
826 827 0
828 827 0
-826 -828 -827 0
-822 827 -829 0
822 -827 -829 0
829 -827 -822 0
822 827 829 0
-829 0
830 831 0
832 831 0
-830 -832 -831 0
-826 831 -833 0
826 -831 -833 0
833 -831 -826 0
826 831 833 0
-833 0
834 835 0
836 835 0
-834 -836 -835 0
-830 835 -837 0
830 -835 -837 0
837 -835 -830 0
830 835 837 0
-837 0
838 839 0
840 839 0
-838 -840 -839 0
-834 839 -841 0
834 -839 -841 0
841 -839 -834 0
834 839 841 0
-841 0
842 843 0
844 843 0
-842 -844 -843 0
-838 843 -845 0
838 -843 -845 0
845 -843 -838 0
838 843 845 0
-845 0
846 847 0
848 847 0
-846 -848 -847 0
-842 847 -849 0
842 -847 -849 0
849 -847 -842 0
842 847 849 0
-849 0
850 851 0
852 851 0
-850 -852 -851 0
-846 851 -853 0
846 -851 -853 0
853 -851 -846 0
846 851 853 0
-853 0
854 855 0
856 855 0
-854 -856 -855 0
-850 855 -857 0
850 -855 -857 0
857 -855 -850 0
850 855 857 0
-857 0
858 859 0
860 859 0
-858 -860 -859 0
-854 859 -861 0
854 -859 -861 0
861 -859 -854 0
854 859 861 0
-861 0
862 863 0
864 863 0
-862 -864 -863 0
-858 863 -865 0
858 -863 -865 0
865 -863 -858 0
858 863 865 0
-865 0
866 867 0
868 867 0
-866 -868 -867 0
-862 867 -869 0
862 -867 -869 0
869 -867 -862 0
862 867 869 0
-869 0
870 871 0
872 871 0
-870 -872 -871 0
-866 871 -873 0
866 -871 -873 0
873 -871 -866 0
866 871 873 0
-873 0
848 874 0
856 874 0
860 874 0
872 874 0
852 874 0
864 874 0
868 874 0
875 874 0
-876 0
-870 874 -877 0
870 -874 -877 0
877 -874 -870 0
870 874 877 0
-877 0
878 879 0
880 879 0
-878 -880 -879 0
-21 879 -881 0
21 -879 -881 0
881 -879 -21 0
21 879 881 0
-881 0
882 883 0
884 883 0
-882 -884 -883 0
-878 883 -885 0
878 -883 -885 0
885 -883 -878 0
878 883 885 0
-885 0
886 887 0
888 887 0
-886 -888 -887 0
-882 887 -889 0
882 -887 -889 0
889 -887 -882 0
882 887 889 0
-889 0
890 891 0
892 891 0
-890 -892 -891 0
-886 891 -893 0
886 -891 -893 0
893 -891 -886 0
886 891 893 0
-893 0
894 895 0
896 895 0
-894 -896 -895 0
-890 895 -897 0
890 -895 -897 0
897 -895 -890 0
890 895 897 0
-897 0
898 899 0
900 899 0
-898 -900 -899 0
-894 899 -901 0
894 -899 -901 0
901 -899 -894 0
894 899 901 0
-901 0
902 903 0
904 903 0
-902 -904 -903 0
-898 903 -905 0
898 -903 -905 0
905 -903 -898 0
898 903 905 0
-905 0
906 907 0
908 907 0
-906 -908 -907 0
-902 907 -909 0
902 -907 -909 0
909 -907 -902 0
902 907 909 0
-909 0
910 911 0
912 911 0
-910 -912 -911 0
-906 911 -913 0
906 -911 -913 0
913 -911 -906 0
906 911 913 0
-913 0
914 915 0
916 915 0
-914 -916 -915 0
-910 915 -917 0
910 -915 -917 0
917 -915 -910 0
910 915 917 0
-917 0
918 919 0
920 919 0
-918 -920 -919 0
-914 919 -921 0
914 -919 -921 0
921 -919 -914 0
914 919 921 0
-921 0
922 923 0
924 923 0
-922 -924 -923 0
-918 923 -925 0
918 -923 -925 0
925 -923 -918 0
918 923 925 0
-925 0
908 926 0
912 926 0
916 926 0
920 926 0
924 926 0
927 926 0
900 926 0
904 926 0
-928 0
-922 926 -929 0
922 -926 -929 0
929 -926 -922 0
922 926 929 0
-929 0
930 931 0
932 931 0
-930 -932 -931 0
-22 931 -933 0
22 -931 -933 0
933 -931 -22 0
22 931 933 0
-933 0
934 935 0
936 935 0
-934 -936 -935 0
-930 935 -937 0
930 -935 -937 0
937 -935 -930 0
930 935 937 0
-937 0
938 939 0
940 939 0
-938 -940 -939 0
-934 939 -941 0
934 -939 -941 0
941 -939 -934 0
934 939 941 0
-941 0
942 943 0
944 943 0
-942 -944 -943 0
-938 943 -945 0
938 -943 -945 0
945 -943 -938 0
938 943 945 0
-945 0
946 947 0
948 947 0
-946 -948 -947 0
-942 947 -949 0
942 -947 -949 0
949 -947 -942 0
942 947 949 0
-949 0
775 950 0
951 950 0
-775 -951 -950 0
-946 950 -952 0
946 -950 -952 0
952 -950 -946 0
946 950 952 0
-952 0
953 954 0
955 954 0
-953 -955 -954 0
-23 954 -956 0
23 -954 -956 0
956 -954 -23 0
23 954 956 0
-956 0
957 958 0
959 958 0
-957 -959 -958 0
-953 958 -960 0
953 -958 -960 0
960 -958 -953 0
953 958 960 0
-960 0
961 962 0
963 962 0
-961 -963 -962 0
-957 962 -964 0
957 -962 -964 0
964 -962 -957 0
957 962 964 0
-964 0
965 966 0
967 966 0
-965 -967 -966 0
-961 966 -968 0
961 -966 -968 0
968 -966 -961 0
961 966 968 0
-968 0
969 970 0
971 970 0
-969 -971 -970 0
-965 970 -972 0
965 -970 -972 0
972 -970 -965 0
965 970 972 0
-972 0
973 974 0
975 974 0
-973 -975 -974 0
-969 974 -976 0
969 -974 -976 0
976 -974 -969 0
969 974 976 0
-976 0
977 978 0
979 978 0
-977 -979 -978 0
-973 978 -980 0
973 -978 -980 0
980 -978 -973 0
973 978 980 0
-980 0
981 982 0
983 982 0
-981 -983 -982 0
-977 982 -984 0
977 -982 -984 0
984 -982 -977 0
977 982 984 0
-984 0
985 986 0
987 986 0
-985 -987 -986 0
-981 986 -988 0
981 -986 -988 0
988 -986 -981 0
981 986 988 0
-988 0
989 990 0
991 990 0
-989 -991 -990 0
-985 990 -992 0
985 -990 -992 0
992 -990 -985 0
985 990 992 0
-992 0
993 994 0
995 994 0
-993 -995 -994 0
-989 994 -996 0
989 -994 -996 0
996 -994 -989 0
989 994 996 0
-996 0
997 998 0
999 998 0
-997 -999 -998 0
-993 998 -1000 0
993 -998 -1000 0
1000 -998 -993 0
993 998 1000 0
-1000 0
1001 1002 0
1003 1002 0
-1001 -1003 -1002 0
-997 1002 -1004 0
997 -1002 -1004 0
1004 -1002 -997 0
997 1002 1004 0
-1004 0
1005 1006 0
1007 1006 0
-1005 -1007 -1006 0
-1001 1006 -1008 0
1001 -1006 -1008 0
1008 -1006 -1001 0
1001 1006 1008 0
-1008 0
991 1009 0
995 1009 0
999 1009 0
983 1009 0
987 1009 0
1003 1009 0
1007 1009 0
1010 1009 0
-1011 0
-1005 1009 -1012 0
1005 -1009 -1012 0
1012 -1009 -1005 0
1005 1009 1012 0
-1012 0
1013 1014 0
1015 1014 0
-1013 -1015 -1014 0
-24 1014 -1016 0
24 -1014 -1016 0
1016 -1014 -24 0
24 1014 1016 0
-1016 0
1017 1018 0
1019 1018 0
-1017 -1019 -1018 0
-1013 1018 -1020 0
1013 -1018 -1020 0
1020 -1018 -1013 0
1013 1018 1020 0
-1020 0
1021 1022 0
1023 1022 0
-1021 -1023 -1022 0
-1017 1022 -1024 0
1017 -1022 -1024 0
1024 -1022 -1017 0
1017 1022 1024 0
-1024 0
1025 1026 0
1027 1026 0
-1025 -1027 -1026 0
-1021 1026 -1028 0
1021 -1026 -1028 0
1028 -1026 -1021 0
1021 1026 1028 0
-1028 0
1029 1030 0
1031 1030 0
-1029 -1031 -1030 0
-1025 1030 -1032 0
1025 -1030 -1032 0
1032 -1030 -1025 0
1025 1030 1032 0
-1032 0
1033 1034 0
1035 1034 0
-1033 -1035 -1034 0
-1029 1034 -1036 0
1029 -1034 -1036 0
1036 -1034 -1029 0
1029 1034 1036 0
-1036 0
1037 1038 0
1039 1038 0
-1037 -1039 -1038 0
-1033 1038 -1040 0
1033 -1038 -1040 0
1040 -1038 -1033 0
1033 1038 1040 0
-1040 0
1041 1042 0
1043 1042 0
-1041 -1043 -1042 0
-1037 1042 -1044 0
1037 -1042 -1044 0
1044 -1042 -1037 0
1037 1042 1044 0
-1044 0
1045 1046 0
1047 1046 0
-1045 -1047 -1046 0
-1041 1046 -1048 0
1041 -1046 -1048 0
1048 -1046 -1041 0
1041 1046 1048 0
-1048 0
1049 1050 0
1051 1050 0
-1049 -1051 -1050 0
-1045 1050 -1052 0
1045 -1050 -1052 0
1052 -1050 -1045 0
1045 1050 1052 0
-1052 0
1053 1054 0
1055 1054 0
-1053 -1055 -1054 0
-1049 1054 -1056 0
1049 -1054 -1056 0
1056 -1054 -1049 0
1049 1054 1056 0
-1056 0
1057 1058 0
1059 1058 0
-1057 -1059 -1058 0
-1053 1058 -1060 0
1053 -1058 -1060 0
1060 -1058 -1053 0
1053 1058 1060 0
-1060 0
1061 1062 0
1063 1062 0
-1061 -1063 -1062 0
-1057 1062 -1064 0
1057 -1062 -1064 0
1064 -1062 -1057 0
1057 1062 1064 0
-1064 0
1065 1066 0
1067 1066 0
-1065 -1067 -1066 0
-1061 1066 -1068 0
1061 -1066 -1068 0
1068 -1066 -1061 0
1061 1066 1068 0
-1068 0
1051 1069 0
1055 1069 0
1059 1069 0
1067 1069 0
1047 1069 0
1063 1069 0
1070 1069 0
-1071 0
-1065 1069 -1072 0
1065 -1069 -1072 0
1072 -1069 -1065 0
1065 1069 1072 0
-1072 0
1073 1074 0
1075 1074 0
-1073 -1075 -1074 0
-25 1074 -1076 0
25 -1074 -1076 0
1076 -1074 -25 0
25 1074 1076 0
-1076 0
1077 1078 0
1079 1078 0
-1077 -1079 -1078 0
-1073 1078 -1080 0
1073 -1078 -1080 0
1080 -1078 -1073 0
1073 1078 1080 0
-1080 0
1081 1082 0
1083 1082 0
-1081 -1083 -1082 0
-1077 1082 -1084 0
1077 -1082 -1084 0
1084 -1082 -1077 0
1077 1082 1084 0
-1084 0
1085 1086 0
1087 1086 0
-1085 -1087 -1086 0
-1081 1086 -1088 0
1081 -1086 -1088 0
1088 -1086 -1081 0
1081 1086 1088 0
-1088 0
1089 1090 0
1091 1090 0
-1089 -1091 -1090 0
-1085 1090 -1092 0
1085 -1090 -1092 0
1092 -1090 -1085 0
1085 1090 1092 0
-1092 0
1093 1094 0
1095 1094 0
-1093 -1095 -1094 0
-1089 1094 -1096 0
1089 -1094 -1096 0
1096 -1094 -1089 0
1089 1094 1096 0
-1096 0
1097 1098 0
1099 1098 0
-1097 -1099 -1098 0
-1093 1098 -1100 0
1093 -1098 -1100 0
1100 -1098 -1093 0
1093 1098 1100 0
-1100 0
1101 1102 0
1103 1102 0
-1101 -1103 -1102 0
-1097 1102 -1104 0
1097 -1102 -1104 0
1104 -1102 -1097 0
1097 1102 1104 0
-1104 0
1105 1106 0
1107 1106 0
-1105 -1107 -1106 0
-1101 1106 -1108 0
1101 -1106 -1108 0
1108 -1106 -1101 0
1101 1106 1108 0
-1108 0
1109 1110 0
1111 1110 0
-1109 -1111 -1110 0
-1105 1110 -1112 0
1105 -1110 -1112 0
1112 -1110 -1105 0
1105 1110 1112 0
-1112 0
1091 1113 0
1099 1113 0
1107 1113 0
1095 1113 0
1103 1113 0
1111 1113 0
1114 1113 0
-1115 0
-1109 1113 -1116 0
1109 -1113 -1116 0
1116 -1113 -1109 0
1109 1113 1116 0
-1116 0
1117 1118 0
1119 1118 0
-1117 -1119 -1118 0
-26 1118 -1120 0
26 -1118 -1120 0
1120 -1118 -26 0
26 1118 1120 0
-1120 0
1121 1122 0
1123 1122 0
-1121 -1123 -1122 0
-1117 1122 -1124 0
1117 -1122 -1124 0
1124 -1122 -1117 0
1117 1122 1124 0
-1124 0
1125 1126 0
1127 1126 0
-1125 -1127 -1126 0
-1121 1126 -1128 0
1121 -1126 -1128 0
1128 -1126 -1121 0
1121 1126 1128 0
-1128 0
1129 1130 0
1131 1130 0
-1129 -1131 -1130 0
-1125 1130 -1132 0
1125 -1130 -1132 0
1132 -1130 -1125 0
1125 1130 1132 0
-1132 0
1133 1134 0
1135 1134 0
-1133 -1135 -1134 0
-1129 1134 -1136 0
1129 -1134 -1136 0
1136 -1134 -1129 0
1129 1134 1136 0
-1136 0
767 1137 0
1138 1137 0
-767 -1138 -1137 0
-1133 1137 -1139 0
1133 -1137 -1139 0
1139 -1137 -1133 0
1133 1137 1139 0
-1139 0
27 -1140 0
30 -1140 0
34 -1140 0
38 -1140 0
-1140 -42 0
46 -1140 0
-1140 -50 0
54 -1140 0
58 -1140 0
-1140 -62 0
-1140 -66 0
70 -1140 0
-1140 -73 0
-1140 -78 0
82 -1140 0
86 -1140 0
-1140 -90 0
94 -1140 0
98 -1140 0
102 -1140 0
-1140 -106 0
-1140 -110 0
-1140 -114 0
118 -1140 0
-1140 -121 0
126 -1140 0
-1140 -130 0
-1140 -134 0
138 -1140 0
142 -1140 0
-1140 -146 0
-1140 -150 0
-1140 -154 0
158 -1140 0
-1140 -162 0
166 -1140 0
-1140 -169 0
-1140 -174 0
-1140 -178 0
-1140 -182 0
-1140 -186 0
-1140 -190 0
194 -1140 0
198 -1140 0
202 -1140 0
-1140 -206 0
210 -1140 0
-1140 -214 0
218 -1140 0
221 -1140 0
-1140 -226 0
-1140 -230 0
234 -1140 0
238 -1140 0
242 -1140 0
245 -1140 0
249 -1140 0
253 -1140 0
257 -1140 0
261 -1140 0
-1140 -265 0
-1140 -269 0
-1140 -273 0
-1140 -277 0
281 -1140 0
-1140 -285 0
-1140 -289 0
293 -1140 0
-1140 -297 0
300 -1140 0
305 -1140 0
-1140 -309 0
313 -1140 0
317 -1140 0
321 -1140 0
325 -1140 0
329 -1140 0
-1140 -333 0
337 -1140 0
341 -1140 0
345 -1140 0
349 -1140 0
-1140 -352 0
-1140 -357 0
-1140 -361 0
365 -1140 0
369 -1140 0
-1140 -373 0
377 -1140 0
-1140 -381 0
-1140 -385 0
389 -1140 0
393 -1140 0
-1140 -397 0
-1140 -401 0
-1140 -405 0
-1140 -409 0
412 -1140 0
-1140 -417 0
-1140 -421 0
425 -1140 0
429 -1140 0
-1140 -433 0
-1140 -436 0
-1140 -440 0
444 -1140 0
-1140 -448 0
-1140 -452 0
456 -1140 0
-1140 -460 0
464 -1140 0
-1140 -468 0
472 -1140 0
-1140 -476 0
480 -1140 0
-1140 -484 0
488 -1140 0
492 -1140 0
-1140 -495 0
500 -1140 0
504 -1140 0
-1140 -508 0
-1140 -512 0
-1140 -516 0
520 -1140 0
524 -1140 0
-1140 -528 0
532 -1140 0
536 -1140 0
-1140 -540 0
-1140 -544 0
548 -1140 0
552 -1140 0
555 -1140 0
560 -1140 0
564 -1140 0
-1140 -568 0
-1140 -572 0
576 -1140 0
579 -1140 0
583 -1140 0
-1140 -587 0
-1140 -591 0
-1140 -595 0
-1140 -599 0
-1140 -603 0
607 -1140 0
611 -1140 0
-1140 -615 0
-1140 -619 0
-1140 -623 0
-1140 -627 0
-1140 -631 0
635 -1140 0
-1140 -638 0
643 -1140 0
647 -1140 0
651 -1140 0
-1140 -655 0
-1140 -658 0
-1140 -662 0
-1140 -666 0
670 -1140 0
674 -1140 0
678 -1140 0
682 -1140 0
686 -1140 0
690 -1140 0
694 -1140 0
-1140 -698 0
702 -1140 0
-1140 -706 0
-1140 -709 0
-1140 -714 0
-1140 -718 0
722 -1140 0
-1140 -726 0
730 -1140 0
-1140 -734 0
-1140 -738 0
741 -1140 0
745 -1140 0
-1140 -749 0
753 -1140 0
-1140 -757 0
761 -1140 0
765 -1140 0
-1140 -769 0
-1140 -773 0
777 -1140 0
-1140 -781 0
-1140 -785 0
-1140 -788 0
-1140 -793 0
-1140 -797 0
801 -1140 0
-1140 -805 0
809 -1140 0
-1140 -813 0
-1140 -816 0
820 -1140 0
-1140 -824 0
-1140 -828 0
832 -1140 0
-1140 -836 0
-1140 -840 0
-1140 -844 0
-1140 -848 0
852 -1140 0
-1140 -856 0
-1140 -860 0
864 -1140 0
868 -1140 0
-1140 -872 0
875 -1140 0
880 -1140 0
884 -1140 0
888 -1140 0
-1140 -892 0
896 -1140 0
900 -1140 0
904 -1140 0
-1140 -908 0
-1140 -912 0
-1140 -916 0
-1140 -920 0
-1140 -924 0
-1140 -927 0
-1140 -932 0
936 -1140 0
940 -1140 0
-1140 -944 0
948 -1140 0
-1140 -951 0
-1140 -955 0
-1140 -959 0
-1140 -963 0
967 -1140 0
971 -1140 0
975 -1140 0
-1140 -979 0
983 -1140 0
987 -1140 0
-1140 -991 0
-1140 -995 0
-1140 -999 0
1003 -1140 0
1007 -1140 0
1010 -1140 0
1015 -1140 0
-1140 -1019 0
-1140 -1023 0
1027 -1140 0
1031 -1140 0
1035 -1140 0
1039 -1140 0
-1140 -1043 0
1047 -1140 0
-1140 -1051 0
-1140 -1055 0
-1140 -1059 0
1063 -1140 0
-1140 -1067 0
1070 -1140 0
-1140 -1075 0
1079 -1140 0
-1140 -1083 0
-1140 -1087 0
-1140 -1091 0
1095 -1140 0
-1140 -1099 0
1103 -1140 0
-1140 -1107 0
1111 -1140 0
1114 -1140 0
1119 -1140 0
1123 -1140 0
-1140 -1127 0
1131 -1140 0
-1140 -1135 0
1138 -1140 0
1140 0
-1141 0
-1142 0
-1143 0
-1144 0
-1145 0
-1146 0
-1147 0
-1148 0
